
Gurobi 11.0.0 (linux64) logging started Thu Jan  9 15:14:47 2025

Set parameter LogFile to value "gurobi.log"
Set parameter InfUnbdInfo to value 1
Gurobi Optimizer version 11.0.0 build v11.0.0rc2 (linux64 - "Ubuntu 22.04.4 LTS")

CPU model: AMD EPYC 7V13 64-Core Processor, instruction set [SSE2|AVX|AVX2]
Thread count: 128 physical cores, 128 logical processors, using up to 32 threads

Optimize a model with 37 rows, 156 columns and 116 nonzeros
Model fingerprint: 0x2afad650
Model has 112 quadratic constraints
Model has 10 general constraints
Variable types: 37 continuous, 119 integer (0 binary)
Coefficient statistics:
  Matrix range     [1e+00, 2e+01]
  QMatrix range    [1e+00, 2e+02]
  QLMatrix range   [1e+00, 2e+02]
  Objective range  [1e+00, 1e+00]
  Bounds range     [1e+00, 2e+06]
  RHS range        [1e+00, 2e+06]
  QRHS range       [2e+02, 9e+03]
Using branch priorities (all 0).
Presolve added 99 rows and 60 columns
Presolve time: 0.01s
Presolved: 435 rows, 370 columns, 1247 nonzeros
Presolved model has 103 SOS constraint(s)
Presolved model has 31 bilinear constraint(s)
Warning: Model contains variables with very large bounds participating
         in product terms.
         Presolve was not able to compute smaller bounds for these variables.
         Consider bounding these variables or reformulating the model.


Solving non-convex MIQCP

Variable types: 95 continuous, 275 integer (121 binary)

Root relaxation: objective 5.825311e+01, 160 iterations, 0.00 seconds (0.00 work units)

    Nodes    |    Current Node    |     Objective Bounds      |     Work
 Expl Unexpl |  Obj  Depth IntInf | Incumbent    BestBd   Gap | It/Node Time

     0     0   58.25311    0   97          -   58.25311      -     -    0s
     0     0   58.25791    0   96          -   58.25791      -     -    0s
H    0     0                    72637.187500   58.25791   100%     -    0s
     0     0  107.88684    0  128 72637.1875  107.88684   100%     -    0s
H    0     0                    57273.250000  111.29774   100%     -    0s
     0     0  135.74267    0  149 57273.2500  135.74267   100%     -    0s
     0     0  155.12492    0  149 57273.2500  155.12492   100%     -    0s
     0     0  213.37677    0  144 57273.2500  213.37677   100%     -    0s
H    0     0                    45690.401204  213.37677   100%     -    0s
     0     0  234.47004    0  144 45690.4012  234.47004  99.5%     -    0s
     0     0  350.75148    0  143 45690.4012  350.75148  99.2%     -    0s
H    0     0                    33660.664962  350.75148  99.0%     -    0s
     0     0  449.29099    0  142 33660.6650  449.29099  98.7%     -    0s
     0     0  449.29099    0  141 33660.6650  449.29099  98.7%     -    0s
     0     0  581.59035    0  141 33660.6650  581.59035  98.3%     -    0s
     0     0  581.59035    0  141 33660.6650  581.59035  98.3%     -    0s
     0     0 1615.67133    0  140 33660.6650 1615.67133  95.2%     -    0s
     0     0 2994.21309    0  140 33660.6650 2994.21309  91.1%     -    0s
H    0     0                    29450.741220 2994.21309  89.8%     -    0s
     0     0 3984.94691    0  117 29450.7412 3984.94691  86.5%     -    0s
H    0     0                    28720.826846 3984.94691  86.1%     -    0s
     0     0 4112.59421    0  117 28720.8268 4112.59421  85.7%     -    0s
     0     0 4223.58055    0  117 28720.8268 4223.58055  85.3%     -    0s
     0     0 4569.92018    0  117 28720.8268 4569.92018  84.1%     -    0s
     0     0 5736.46352    0  118 28720.8268 5736.46352  80.0%     -    0s
     0     0 5953.05090    0  118 28720.8268 5953.05090  79.3%     -    0s
     0     0 6460.22461    0  118 28720.8268 6460.22461  77.5%     -    0s
     0     0 7495.80736    0  118 28720.8268 7495.80736  73.9%     -    0s
     0     0 8416.39974    0  118 28720.8268 8416.39974  70.7%     -    0s
H    0     0                    27745.548915 8642.77547  68.8%     -    0s
     0     0 8642.77547    0  118 27745.5489 8642.77547  68.8%     -    0s
     0     0 8797.77092    0  118 27745.5489 8797.77092  68.3%     -    0s
H    0     0                    22172.721093 8797.77092  60.3%     -    0s
     0     0 9483.02745    0  133 22172.7211 9483.02745  57.2%     -    0s
     0     0 9714.18188    0  133 22172.7211 9714.18188  56.2%     -    0s
     0     0 10113.0710    0  133 22172.7211 10113.0710  54.4%     -    0s
     0     0 10551.8358    0  129 22172.7211 10551.8358  52.4%     -    0s
     0     0 10876.1016    0  127 22172.7211 10876.1016  50.9%     -    0s
     0     0 10951.6921    0  128 22172.7211 10951.6921  50.6%     -    0s
     0     0 11091.5924    0  117 22172.7211 11091.5924  50.0%     -    0s
     0     0 11117.4095    0  124 22172.7211 11117.4095  49.9%     -    0s
H    0     0                    21451.301875 11309.9006  47.3%     -    0s
     0     0 11309.9006    0  123 21451.3019 11309.9006  47.3%     -    0s
H    0     0                    18058.039476 11309.9006  37.4%     -    0s
     0     0 11407.5757    0  123 18058.0395 11407.5757  36.8%     -    0s
     0     0 11620.1661    0  121 18058.0395 11620.1661  35.7%     -    0s
     0     0 11682.4354    0  135 18058.0395 11682.4354  35.3%     -    0s
     0     0 11857.4354    0  122 18058.0395 11857.4354  34.3%     -    0s
     0     0 11875.5710    0  122 18058.0395 11875.5710  34.2%     -    0s
     0     0 11991.1700    0  130 18058.0395 11991.1700  33.6%     -    0s
     0     0 11991.1700    0  131 18058.0395 11991.1700  33.6%     -    0s
     0     0 12289.8536    0  146 18058.0395 12289.8536  31.9%     -    0s
     0     0 12289.8536    0   68 18058.0395 12289.8536  31.9%     -    1s
     0     0 12289.8536    0   67 18058.0395 12289.8536  31.9%     -    1s
     0     0 12289.8536    0   70 18058.0395 12289.8536  31.9%     -    1s
     0     0 12289.8536    0   73 18058.0395 12289.8536  31.9%     -    1s
     0     0 12289.8536    0   63 18058.0395 12289.8536  31.9%     -    1s
     0     0 12289.8536    0   74 18058.0395 12289.8536  31.9%     -    1s
     0     0 12289.8536    0   70 18058.0395 12289.8536  31.9%     -    2s
     0     0 12289.8536    0   70 18058.0395 12289.8536  31.9%     -    2s
     0     0 12289.8536    0   84 18058.0395 12289.8536  31.9%     -    2s
     0     0 12289.8536    0   87 18058.0395 12289.8536  31.9%     -    2s
     0     0 12289.8536    0   82 18058.0395 12289.8536  31.9%     -    2s
     0     0 12289.8536    0   85 18058.0395 12289.8536  31.9%     -    2s
     0     0 12289.8536    0   86 18058.0395 12289.8536  31.9%     -    2s
     0     0 12289.8536    0   86 18058.0395 12289.8536  31.9%     -    2s
     0     0 12289.8536    0   96 18058.0395 12289.8536  31.9%     -    2s
     0     0 12289.8536    0   93 18058.0395 12289.8536  31.9%     -    3s
H    0     0                    17039.147016 12289.8536  27.9%     -    3s
     0     0 12289.8536    0   86 17039.1470 12289.8536  27.9%     -    3s
     0     0 12289.8536    0   81 17039.1470 12289.8536  27.9%     -    3s
     0     0 12289.8536    0   89 17039.1470 12289.8536  27.9%     -    3s
     0     0 12289.8536    0   89 17039.1470 12289.8536  27.9%     -    3s
     0     0 12289.8536    0   82 17039.1470 12289.8536  27.9%     -    3s
     0     0 12289.8536    0   85 17039.1470 12289.8536  27.9%     -    3s
     0     0 12289.8536    0   85 17039.1470 12289.8536  27.9%     -    3s
     0     0 12289.8536    0   91 17039.1470 12289.8536  27.9%     -    3s
     0     0 12289.8536    0   91 17039.1470 12289.8536  27.9%     -    3s
     0     0 12289.8536    0   77 17039.1470 12289.8536  27.9%     -    4s
     0     2 12289.8536    0   74 17039.1470 12289.8536  27.9%     -    4s
   392    24 infeasible   13      17039.1470 12289.8536  27.9%  13.1    5s

Cutting planes:
  Gomory: 3
  Implied bound: 50
  MIR: 17
  Flow cover: 3
  RLT: 13
  Relax-and-lift: 25

Explored 519 nodes (7664 simplex iterations) in 5.28 seconds (0.30 work units)
Thread count was 32 (of 128 available processors)

Solution count 10: 17039.1 18058 21451.3 ... 57273.2

Optimal solution found (tolerance 1.00e-04)
Warning: max constraint violation (1.7494e-03) exceeds tolerance
Warning: max general constraint violation (1.7494e-03) exceeds tolerance
  Piecewise linearization of function constraints often causes big violation.
  Try to adjust the settings of the related parameters, such as FuncPieces.
Best objective 1.703914701594e+04, best bound 1.703914701594e+04, gap 0.0000%

Gurobi 11.0.0 (linux64) logging started Fri Jan 10 12:27:42 2025

Set parameter LogFile to value "gurobi.log"
Set parameter InfUnbdInfo to value 1
Gurobi Optimizer version 11.0.0 build v11.0.0rc2 (linux64 - "Ubuntu 22.04.4 LTS")

CPU model: AMD EPYC 7V13 64-Core Processor, instruction set [SSE2|AVX|AVX2]
Thread count: 128 physical cores, 128 logical processors, using up to 32 threads

Optimize a model with 37 rows, 156 columns and 116 nonzeros
Model fingerprint: 0x393628f8
Model has 112 quadratic constraints
Model has 10 general constraints
Variable types: 37 continuous, 119 integer (0 binary)
Coefficient statistics:
  Matrix range     [1e+00, 2e+01]
  QMatrix range    [1e+00, 2e+02]
  QLMatrix range   [1e+00, 2e+02]
  Objective range  [1e+00, 1e+00]
  Bounds range     [1e+00, 2e+06]
  RHS range        [1e+00, 2e+06]
  QRHS range       [2e+02, 1e+04]
Using branch priorities (all 0).
Presolve added 99 rows and 60 columns
Presolve time: 0.01s
Presolved: 435 rows, 370 columns, 1247 nonzeros
Presolved model has 103 SOS constraint(s)
Presolved model has 31 bilinear constraint(s)
Warning: Model contains variables with very large bounds participating
         in product terms.
         Presolve was not able to compute smaller bounds for these variables.
         Consider bounding these variables or reformulating the model.


Solving non-convex MIQCP

Variable types: 95 continuous, 275 integer (121 binary)

Root relaxation: objective 5.825311e+01, 165 iterations, 0.00 seconds (0.00 work units)

    Nodes    |    Current Node    |     Objective Bounds      |     Work
 Expl Unexpl |  Obj  Depth IntInf | Incumbent    BestBd   Gap | It/Node Time

     0     0   58.25311    0   97          -   58.25311      -     -    0s
     0     0   58.25791    0   96          -   58.25791      -     -    0s
H    0     0                    72637.187500   58.25791   100%     -    0s
     0     0  107.86669    0  129 72637.1875  107.86669   100%     -    0s
H    0     0                    57273.250000  111.26745   100%     -    0s
     0     0  111.26745    0  129 57273.2500  111.26745   100%     -    0s
     0     0  155.12492    0  151 57273.2500  155.12492   100%     -    0s
     0     0  155.12492    0  151 57273.2500  155.12492   100%     -    0s
     0     0  186.66851    0  151 57273.2500  186.66851   100%     -    0s
     0     0  234.47004    0  143 57273.2500  234.47004   100%     -    0s
     0     0  234.47004    0  141 57273.2500  234.47004   100%     -    0s
H    0     0                    43190.463704  234.47004  99.5%     -    0s
     0     0  241.18053    0  141 43190.4637  241.18053  99.4%     -    0s
     0     0  350.68958    0  137 43190.4637  350.68958  99.2%     -    0s
     0     0  350.68958    0  136 43190.4637  350.68958  99.2%     -    0s
     0     0  448.94962    0  136 43190.4637  448.94962  99.0%     -    0s
     0     0  448.94962    0  109 43190.4637  448.94962  99.0%     -    0s
     0     0  516.34743    0  111 43190.4637  516.34743  98.8%     -    0s
H    0     0                    22736.845179  516.34743  97.7%     -    0s
     0     0  516.34743    0  111 22736.8452  516.34743  97.7%     -    0s
     0     0  579.85195    0  112 22736.8452  579.85195  97.4%     -    0s
H    0     0                    21996.680790  579.85195  97.4%     -    0s
     0     0  938.99206    0  112 21996.6808  938.99206  95.7%     -    0s
     0     0 1553.41287    0  112 21996.6808 1553.41287  92.9%     -    0s
     0     0 2827.16858    0  112 21996.6808 2827.16858  87.1%     -    0s
     0     0 3022.35333    0  109 21996.6808 3022.35333  86.3%     -    0s
     0     0 3928.85250    0  115 21996.6808 3928.85250  82.1%     -    0s
     0     0 4074.06816    0  114 21996.6808 4074.06816  81.5%     -    0s
     0     0 4546.84416    0  114 21996.6808 4546.84416  79.3%     -    0s
     0     0 5696.27467    0  114 21996.6808 5696.27467  74.1%     -    0s
     0     0 6524.39238    0  143 21996.6808 6524.39238  70.3%     -    0s
     0     0 8059.87091    0  115 21996.6808 8059.87091  63.4%     -    0s
     0     0 8120.13698    0  114 21996.6808 8120.13698  63.1%     -    0s
     0     0 8256.13324    0  138 21996.6808 8256.13324  62.5%     -    0s
H    0     0                    21996.680246 8256.13324  62.5%     -    0s
     0     0 8433.51835    0  135 21996.6802 8433.51835  61.7%     -    0s
     0     0 8889.89162    0  121 21996.6802 8889.89162  59.6%     -    0s
     0     0 9369.52253    0  121 21996.6802 9369.52253  57.4%     -    0s
     0     0 9712.90388    0  130 21996.6802 9712.90388  55.8%     -    0s
     0     0 9862.62388    0  127 21996.6802 9862.62388  55.2%     -    0s
H    0     0                    20970.711728 10262.4730  51.1%     -    0s
H    0     0                    20770.586728 10262.4730  50.6%     -    0s
     0     0 10348.0096    0  123 20770.5867 10348.0096  50.2%     -    0s
     0     0 10549.2697    0  121 20770.5867 10549.2697  49.2%     -    0s
     0     0 10678.2123    0  128 20770.5867 10678.2123  48.6%     -    0s
     0     0 10821.3170    0  128 20770.5867 10821.3170  47.9%     -    0s
     0     0 10956.0543    0  125 20770.5867 10956.0543  47.3%     -    0s
     0     0 11003.8642    0  126 20770.5867 11003.8642  47.0%     -    0s
     0     0 11122.4742    0  118 20770.5867 11122.4742  46.5%     -    0s
H    0     0                    19415.928505 11408.7062  41.2%     -    0s
     0     0 11408.7062    0  100 19415.9285 11408.7062  41.2%     -    0s
     0     0 11408.7062    0   64 19415.9285 11408.7062  41.2%     -    1s
     0     0 11408.7062    0   63 19415.9285 11408.7062  41.2%     -    1s
     0     0 11408.7062    0   90 19415.9285 11408.7062  41.2%     -    1s
     0     0 11408.7062    0   89 19415.9285 11408.7062  41.2%     -    1s
     0     0 11408.7062    0   38 19415.9285 11408.7062  41.2%     -    1s
     0     0 11408.7062    0   52 19415.9285 11408.7062  41.2%     -    1s
     0     0 11408.7062    0   58 19415.9285 11408.7062  41.2%     -    1s
     0     0 11408.7062    0   70 19415.9285 11408.7062  41.2%     -    2s
     0     0 11408.7062    0   78 19415.9285 11408.7062  41.2%     -    2s
     0     0 11408.7062    0   86 19415.9285 11408.7062  41.2%     -    2s
     0     0 11408.7062    0   68 19415.9285 11408.7062  41.2%     -    2s
     0     0 11408.7062    0   68 19415.9285 11408.7062  41.2%     -    2s
     0     0 11408.7062    0   72 19415.9285 11408.7062  41.2%     -    2s
     0     0 11408.7062    0   76 19415.9285 11408.7062  41.2%     -    2s
     0     0 11408.7062    0   80 19415.9285 11408.7062  41.2%     -    2s
     0     0 11408.7062    0   80 19415.9285 11408.7062  41.2%     -    2s
     0     0 11408.7062    0   82 19415.9285 11408.7062  41.2%     -    2s
H    0     0                    15640.758362 11408.7062  27.1%     -    2s
     0     0 11408.7062    0   82 15640.7584 11408.7062  27.1%     -    2s
H    0     0                    15440.695892 11408.7062  26.1%     -    2s
     0     0 11408.7062    0   79 15440.6959 11408.7062  26.1%     -    2s
     0     0 11408.7062    0   79 15440.6959 11408.7062  26.1%     -    2s
     0     0 11408.7062    0   75 15440.6959 11408.7062  26.1%     -    3s
     0     0 11408.7062    0   76 15440.6959 11408.7062  26.1%     -    3s
     0     0 11408.7062    0   80 15440.6959 11408.7062  26.1%     -    3s
     0     0 11408.7062    0   65 15440.6959 11408.7062  26.1%     -    3s
     0     1 11408.7062    0   64 15440.6959 11408.7062  26.1%     -    3s

Cutting planes:
  Implied bound: 34
  Clique: 1
  MIR: 17
  Flow cover: 3
  RLT: 8
  Relax-and-lift: 24
  BQP: 1

Explored 324 nodes (4905 simplex iterations) in 4.37 seconds (0.28 work units)
Thread count was 32 (of 128 available processors)

Solution count 10: 15440.7 15640.8 19415.9 ... 57273.2

Optimal solution found (tolerance 1.00e-04)
Warning: max constraint violation (9.5474e-04) exceeds tolerance
Warning: max general constraint violation (9.5474e-04) exceeds tolerance
Best objective 1.544069589154e+04, best bound 1.544069589154e+04, gap 0.0000%
